\ Model  -- The Multi Commodity Vehicle Transportation Problem -- 
\ LP format - for model browsing. Use MPS format to capture full model detail.
Minimize
  10 S1_D1_V - 0.1764705882352941 S1_D1_c1 - 0.2585034013605442 S1_D1_c2
   + 10 S1_D2_V - 0.3529411764705883 S1_D2_c1 - 0.4353741496598639 S1_D2_c2
   + 10 S1_D3_V - 0.4705882352941176 S1_D3_c1 - 0.3061224489795918 S1_D3_c2
   + 15 S2_D1_V - 0.1764705882352941 S2_D1_c1 - 0.2585034013605442 S2_D1_c2
   + 15 S2_D2_V - 0.3529411764705883 S2_D2_c1 - 0.4353741496598639 S2_D2_c2
   + 15 S2_D3_V - 0.4705882352941176 S2_D3_c1 - 0.3061224489795918 S2_D3_c2
   + 417.6070428171269 Constant
Subject To
 R0: S1_D1_c1 + S1_D2_c1 + S1_D3_c1 <= 100
 R1: S1_D1_c2 + S1_D2_c2 + S1_D3_c2 <= 200
 R2: S2_D1_c1 + S2_D2_c1 + S2_D3_c1 <= 200
 R3: S2_D1_c2 + S2_D2_c2 + S2_D3_c2 <= 700
 R4: S1_D1_c1 + S2_D1_c1 <= 75
 R5: S1_D1_c2 + S2_D1_c2 <= 190
 R6: S1_D2_c1 + S2_D2_c1 <= 150
 R7: S1_D2_c2 + S2_D2_c2 <= 320
 R8: S1_D3_c1 + S2_D3_c1 <= 200
 R9: S1_D3_c2 + S2_D3_c2 <= 225
 R10: S1_D1_c1 + S1_D1_c2 + S1_D2_c1 + S1_D2_c2 + S1_D3_c1 + S1_D3_c2
   <= 750
 R11: S2_D1_c1 + S2_D1_c2 + S2_D2_c1 + S2_D2_c2 + S2_D3_c1 + S2_D3_c2
   <= 1050
 R12: S1_D1_V + S1_D2_V + S1_D3_V <= 5
 R13: S2_D1_V + S2_D2_V + S2_D3_V <= 7
 R14: S1_D1_V - 0.00666666666666667 S1_D1_c1 - 0.00666666666666667 S1_D1_c2
   >= 0
 R15: S1_D2_V - 0.00666666666666667 S1_D2_c1 - 0.00666666666666667 S1_D2_c2
   >= 0
 R16: S1_D3_V - 0.00666666666666667 S1_D3_c1 - 0.00666666666666667 S1_D3_c2
   >= 0
 R17: S2_D1_V - 0.00666666666666667 S2_D1_c1 - 0.00666666666666667 S2_D1_c2
   >= 0
 R18: S2_D2_V - 0.00666666666666667 S2_D2_c1 - 0.00666666666666667 S2_D2_c2
   >= 0
 R19: S2_D3_V - 0.00666666666666667 S2_D3_c1 - 0.00666666666666667 S2_D3_c2
   >= 0
 R20: S1_D1_V - 0.00666666666666667 S1_D1_c1 - 0.00666666666666667 S1_D1_c2
   <= 1
 R21: S1_D2_V - 0.00666666666666667 S1_D2_c1 - 0.00666666666666667 S1_D2_c2
   <= 1
 R22: S1_D3_V - 0.00666666666666667 S1_D3_c1 - 0.00666666666666667 S1_D3_c2
   <= 1
 R23: S2_D1_V - 0.00666666666666667 S2_D1_c1 - 0.00666666666666667 S2_D1_c2
   <= 1
 R24: S2_D2_V - 0.00666666666666667 S2_D2_c1 - 0.00666666666666667 S2_D2_c2
   <= 1
 R25: S2_D3_V - 0.00666666666666667 S2_D3_c1 - 0.00666666666666667 S2_D3_c2
   <= 1
Bounds
 Constant = 1
Generals
 S1_D1_V S1_D1_c1 S1_D1_c2 S1_D2_V S1_D2_c1 S1_D2_c2 S1_D3_V S1_D3_c1
 S1_D3_c2 S2_D1_V S2_D1_c1 S2_D1_c2 S2_D2_V S2_D2_c1 S2_D2_c2 S2_D3_V
 S2_D3_c1 S2_D3_c2
End
